    pair_coeff  1 1   10.0  1.0  2.5
    pair_coeff  2 2   1.0  1.0  2.5
    pair_coeff  1 2   1.0  1.0  1.122
    bond_coeff  1   300.0 1.0

#first epsilon then sigma


